NAME 
ROWS
 N  OBJ
 L  R0      
 L  R1      
 E  R2      
 E  R3      
 E  R4      
 E  R5      
 E  R6      
 E  R7      
 E  R8      
 E  R9      
 E  R10     
 E  R11     
COLUMNS
    MARKER    'MARKER'                 'INTORG'
    I0(6)     OBJ       -90
    I0(6)     R0        59
    I0(6)     R1        123
    I0(6)     R2        8
    I0(6)     R4        7
    I0(6)     R7        15
    I0(6)     R11       1
    I1(6)     OBJ       -7
    I1(6)     R0        -94
    I1(6)     R1        -42
    I1(6)     R3        9
    I1(6)     R6        10
    I1(6)     R7        5
    I1(6)     R11       1
    I2(6)     OBJ       -160
    I2(6)     R0        172
    I2(6)     R1        66
    I2(6)     R2        5
    I2(6)     R3        7
    I2(6)     R5        16
    I2(6)     R11       1
    I3(6)     OBJ       61
    I3(6)     R0        75
    I3(6)     R1        -78
    I3(6)     R2        8
    I3(6)     R3        13
    I3(6)     R5        16
    I3(6)     R11       1
    I4(5)     OBJ       113
    I4(5)     R0        -40
    I4(5)     R1        18
    I4(5)     R2        17
    I4(5)     R4        -1
    I4(5)     R11       1
    I5(6)     OBJ       -183
    I5(6)     R0        -86
    I5(6)     R1        11
    I5(6)     R3        9
    I5(6)     R5        8
    I5(6)     R6        6
    I5(6)     R11       1
    MARKER    'MARKER'                 'INTEND'
    C6(4)     OBJ       -5
    C6(4)     R1        -9
    C6(4)     R2        3
    C6(4)     R6        18
    C6(4)     R10       11
    C7(8)     OBJ       -2
    C7(8)     R0        8
    C7(8)     R1        -5
    C7(8)     R2        9
    C7(8)     R3        10
    C7(8)     R4        2
    C7(8)     R6        -1
    C7(8)     R8        14
    C7(8)     R9        14
    C8(8)     OBJ       7
    C8(8)     R0        -6
    C8(8)     R1        2
    C8(8)     R2        13
    C8(8)     R3        10
    C8(8)     R4        19
    C8(8)     R5        19
    C8(8)     R8        14
    C8(8)     R10       5
    C9(3)     R0        -2
    C9(3)     R4        2
    C9(3)     R10       13
    C10(1)    R2        1
    C11(1)    R3        1
    C12(1)    R4        1
    C13(1)    R5        1
    C14(1)    R6        1
    C15(1)    R7        1
    C16(1)    R8        1
    C17(1)    R9        1
    C18(1)    R10       1
    C19(1)    R11       1
RHS
    RHS1      R0        1.1838522588522588e+02
    RHS1      R1        2.7178571428571402e+01
    RHS1      R2        82
    RHS1      R3        90
    RHS1      R4        96
    RHS1      R5        98
    RHS1      R6        53
    RHS1      R7        83
    RHS1      R8        72
    RHS1      R9        67
    RHS1      R10       70
    RHS1      R11       2
BOUNDS
 UP BND1      I0(6)     1
 UP BND1      I1(6)     1
 UP BND1      I2(6)     1
 UP BND1      I3(6)     1
 UP BND1      I4(5)     1
 UP BND1      I5(6)     1
ENDATA
